9905
7630
6549
5933
2590
5939
9791
1154
5064
4245
4011
4468
922
745
7049
9020
6630
3897
1102
1290
6844
7810
3724
1927
6037
9593
9828
9616
6178
6611
4132
6125
3170
7032
7533
7481
4202
9580
3601
9823
3627
5107
4612
8283
4844
3353
3551
9424
2110
2977
